NAME : instances/clustered-mixed-tsp/instance-60.tsp
COMMENT : No Comment
TYPE : TSP
DIMENSION: 49
EDGE_WEIGHT_TYPE : EUC_2D
NODE_COORD_SECTION
1 760 -13 
2 745 609 
3 626 881 
4 869 563 
5 910 315 
6 1012 298 
7 777 55 
8 773 207 
9 525 392 
10 307 438 
11 78 675 
12 256 489 
13 544 879 
14 44 539 
15 643 660 
16 671 122 
17 553 177 
18 825 213 
19 776 805 
20 862 140 
21 937 461 
22 511 489 
23 558 932 
24 461 1008 
25 620 37 
26 1063 196 
27 417 466 
28 607 -115 
29 621 177 
30 10 641 
31 810 567 
32 553 211 
33 389 290 
34 671 224 
35 909 224 
36 910 247 
37 671 156 
38 170 293 
39 637 71 
40 485 432 
41 593 426 
42 493 794 
43 859 179 
44 221 480 
45 338 528 
46 563 889 
47 830 677 
48 691 618 
49 621 330 
EOF
